[runlim] version:		2.0.0rc12
[runlim] host:			ap-Precision-7550
[runlim] time limit:		311040000 seconds
[runlim] real time limit:	600 seconds
[runlim] space limit:		14000 MB
[runlim] argv[0]:		python3
[runlim] argv[1]:		cp.py
[runlim] argv[2]:		graph09
[runlim] start:			Thu Mar 26 02:59:40 2026
[runlim] child:			31412
--- Building model for 916 variables ---
--- Solving with CP Optimizer (Integer Mode) ---
 ! --------------------------------------------------- CP Optimizer 22.1.1.0 --
 ! Minimization problem - 916 variables, 5246 constraints
 ! LogVerbosity         = Terse
 ! Initial process time : 0.04s (0.04s extraction + 0.00s propagation)
 !  . Log search space  : 4844.7 (before), 4844.7 (after)
 !  . Memory usage      : 2.8 MB (before), 2.8 MB (after)
 ! Using parallel search with 12 workers.
 ! ----------------------------------------------------------------------------
 !          Best Branches  Non-fixed    W       Branch decision
                        0        916                 -
 + New bound is 0
                        0        916                 -
 + New bound is 1
                        2        916    1   F   142 != node_268
 + New bound is 2
 *            46      691  0.16s       12      (gap is 95.65%)
 *            44     1202  0.25s        1      (gap is 95.45%)
 *            42     1134  0.25s       11      (gap is 95.24%)
 *            40     3041  0.42s        8      (gap is 95.00%)
 *            36     5730  0.53s        9      (gap is 94.44%)
 *            34     7327  0.67s        3      (gap is 94.12%)
 *            32     9418  0.87s        6      (gap is 93.75%)
 *            30    14433  1.17s        5      (gap is 93.33%)
 *            28    19491  1.46s        4      (gap is 92.86%)
 *            26    21798  1.65s        3      (gap is 92.31%)
 *            22    32409  2.67s        4      (gap is 90.91%)
 *            20    30893  3.00s        9      (gap is 90.00%)
[runlim] sample:		61.42 time, 10.02 real, 379 MB, 8.47 load
 *            18    81760  11.23s       4      (gap is 88.89%)
[runlim] sample:		146.23 time, 20.01 real, 396 MB, 9.08 load
              18     239k        662    1   F   778 != node_737
 + New bound is 3 (gap is 83.33%)
[runlim] sample:		226.66 time, 30.01 real, 403 MB, 9.46 load
[runlim] sample:		312.15 time, 40.01 real, 406 MB, 9.63 load
[runlim] sample:		399.14 time, 50.02 real, 408 MB, 9.92 load
[runlim] sample:		489.95 time, 60.02 real, 409 MB, 9.18 load
[runlim] sample:		574.89 time, 70.01 real, 412 MB, 9.39 load
[runlim] sample:		663.83 time, 80.02 real, 414 MB, 9.06 load
[runlim] sample:		740.99 time, 90.01 real, 416 MB, 9.11 load
[runlim] sample:		830.84 time, 100.01 real, 418 MB, 9.03 load
[runlim] sample:		913.24 time, 110.01 real, 419 MB, 8.19 load
[runlim] sample:		995.14 time, 120.01 real, 421 MB, 8.70 load
[runlim] sample:		1078.73 time, 130.01 real, 422 MB, 8.98 load
[runlim] sample:		1156.71 time, 140.02 real, 423 MB, 8.64 load
[runlim] sample:		1242.09 time, 150.02 real, 423 MB, 8.75 load
[runlim] sample:		1329.68 time, 160.01 real, 425 MB, 9.03 load
[runlim] sample:		1411.14 time, 170.01 real, 425 MB, 9.41 load
[runlim] sample:		1500.94 time, 180.01 real, 426 MB, 9.57 load
[runlim] sample:		1586.83 time, 190.01 real, 426 MB, 9.95 load
[runlim] sample:		1677.07 time, 200.01 real, 426 MB, 9.23 load
[runlim] sample:		1755.45 time, 210.01 real, 427 MB, 9.59 load
[runlim] sample:		1836.78 time, 220.01 real, 427 MB, 8.71 load
[runlim] sample:		1919.65 time, 230.01 real, 427 MB, 8.57 load
[runlim] sample:		2001.68 time, 240.02 real, 428 MB, 8.86 load
[runlim] sample:		2090.37 time, 250.02 real, 429 MB, 9.34 load
[runlim] sample:		2177.06 time, 260.01 real, 429 MB, 9.75 load
[runlim] sample:		2260.50 time, 270.02 real, 429 MB, 10.02 load
[runlim] sample:		2349.38 time, 280.01 real, 430 MB, 10.10 load
[runlim] sample:		2431.32 time, 290.01 real, 430 MB, 9.73 load
[runlim] sample:		2513.74 time, 300.02 real, 431 MB, 9.45 load
[runlim] sample:		2594.26 time, 310.01 real, 432 MB, 9.60 load
[runlim] sample:		2685.58 time, 320.01 real, 432 MB, 9.23 load
[runlim] sample:		2767.77 time, 330.02 real, 433 MB, 8.92 load
[runlim] sample:		2848.67 time, 340.01 real, 434 MB, 9.15 load
[runlim] sample:		2931.10 time, 350.01 real, 434 MB, 9.37 load
[runlim] sample:		3008.46 time, 360.01 real, 435 MB, 9.45 load
[runlim] sample:		3089.49 time, 370.01 real, 435 MB, 9.69 load
[runlim] sample:		3170.37 time, 380.02 real, 435 MB, 9.51 load
[runlim] sample:		3253.83 time, 390.01 real, 435 MB, 9.73 load
[runlim] sample:		3335.74 time, 400.01 real, 435 MB, 10.24 load
[runlim] sample:		3411.99 time, 410.01 real, 436 MB, 9.62 load
[runlim] sample:		3492.06 time, 420.01 real, 436 MB, 9.18 load
[runlim] sample:		3577.90 time, 430.01 real, 436 MB, 9.69 load
[runlim] sample:		3665.42 time, 440.02 real, 437 MB, 9.14 load
[runlim] sample:		3738.72 time, 450.01 real, 437 MB, 9.19 load
[runlim] sample:		3820.58 time, 460.01 real, 437 MB, 8.74 load
[runlim] sample:		3897.51 time, 470.01 real, 438 MB, 8.87 load
[runlim] sample:		3976.41 time, 480.01 real, 438 MB, 9.03 load
[runlim] sample:		4060.35 time, 490.01 real, 438 MB, 8.52 load
[runlim] sample:		4146.71 time, 500.02 real, 438 MB, 8.57 load
[runlim] sample:		4237.54 time, 510.02 real, 438 MB, 8.87 load
[runlim] sample:		4314.72 time, 520.01 real, 439 MB, 9.35 load
[runlim] sample:		4385.15 time, 530.01 real, 439 MB, 8.62 load
[runlim] sample:		4471.36 time, 540.02 real, 439 MB, 8.40 load
[runlim] sample:		4553.84 time, 550.01 real, 439 MB, 8.89 load
[runlim] sample:		4640.47 time, 560.02 real, 440 MB, 9.29 load
[runlim] sample:		4724.91 time, 570.01 real, 440 MB, 9.18 load
[runlim] sample:		4811.13 time, 580.01 real, 441 MB, 8.22 load
[runlim] sample:		4891.31 time, 590.02 real, 443 MB, 7.70 load
[runlim] sample:		4968.16 time, 600.02 real, 443 MB, 8.36 load
[runlim] end:			Thu Mar 26 03:09:42 2026
[runlim] status:		out of time
[runlim] result:		2
[runlim] children:		2
[runlim] processes:		3
[runlim] real:			601.07 seconds
[runlim] time:			4968.16 seconds
[runlim] space:			443 MB
[runlim] load:			10.24 maximum
[runlim] samples:		6000
